
  22   10
  10   10   10   10   10   10   10   10   10   10

   0   0   0   0   0   0   0   0   0   0   0   3 2 4 13 
   8   0   0   0  10   0   0   0   0   0   0   3 7 6 3 
  10   0  10   0   0   0   0   0   0   0   0   4 21 12 8 5 
   9  10   0   0   0   0   0   0   0   0   0   8 21 20 19 18 17 16 15 10 
  10   0   0   0   0   0   0   0  10   0   0   6 20 19 18 17 16 9 
   3   0  10   0   0   0   0   0   0   0   0   5 19 18 17 15 14 
   7   0   0   0  10   0   0   0   0   0   0   4 17 16 15 14 
   9   0   0   0   0   0   0   0   0  10   0   3 16 15 11 
   2   0   0   0   0   0   0   0   0   0  10   2 15 11 
   1   0   0   0   0   0   0   0   0   0  10   1 11 
   5   0   0   0  10   0   0   0   0   0   0   1 14 
   9   0   0   0   0   0   0   0  10   0   0   1 14 
   5   0   0   0   0   0  10   0   0   0   0   1 15 
   1   0   0   0   0  10   0   0   0   0   0   1 22
   5   0   0   0   0   0   0   0  10   0   0   1 22
   5   0   0   0  10   0   0   0   0   0   0   1 22
   3   0   0   0  10   0   0   0   0   0   0   1 22
   8   0   0   0   0   0  10   0   0   0   0   1 22
   2   0   0   0   0  10   0   0   0   0   0   1 22
   5   0   0   0   0   0   0   0  10   0   0   1 22
   2   0   0   0  10   0   0   0   0   0   0   1 22
   0   0   0   0   0   0   0   0   0   0   0   0 
